/* Cplex Data generated on 2017-12-16 */

k = 12;

b = 6;

AtomicConstraints = {
	 <1, 2>,
	 <1, 3>,
	 <1, 5>,
	 <1, 6>,
	 <4, 3>,
	 <4, 5>,
	 <4, 6>,
	 }; 

SoftAtomicConstraints = {
	 <4, 1>,
	 <6, 2>,
	 <3, 5>,
	 <5, 6>,
	 <8, 7>,
	 <11, 8>,
	 <9, 10>,
	 <10, 11>,
	 <7, 12>,
	 }; 

DisjunctiveConstraints = {
	 <5, 3, 5, 6>,
	 <6, 5, 6, 2>,
	 <10, 9, 10, 11>,
	 <7, 8, 7, 12>,
	 }; 

DirectSuccessors = {
	 }; 

